70 2415
1 2 169
1 3 121
1 4 69
1 5 65
1 6 123
1 7 196
1 8 125
1 9 159
1 10 4
1 11 41
1 12 144
1 13 158
1 14 120
1 15 58
1 16 110
1 17 146
1 18 116
1 19 160
1 20 65
1 21 31
1 22 74
1 23 162
1 24 206
1 25 93
1 26 205
1 27 128
1 28 101
1 29 28
1 30 28
1 31 114
1 32 187
1 33 115
1 34 8
1 35 165
1 36 145
1 37 40
1 38 180
1 39 127
1 40 108
1 41 14
1 42 37
1 43 182
1 44 187
1 45 85
1 46 15
1 47 110
1 48 40
1 49 172
1 50 16
1 51 182
1 52 200
1 53 21
1 54 18
1 55 148
1 56 185
1 57 44
1 58 146
1 59 193
1 60 88
1 61 107
1 62 119
1 63 41
1 64 193
1 65 46
1 66 171
1 67 6
1 68 145
1 69 12
1 70 129
2 3 195
2 4 24
2 5 62
2 6 92
2 7 23
2 8 198
2 9 193
2 10 185
2 11 116
2 12 22
2 13 62
2 14 27
2 15 80
2 16 36
2 17 4
2 18 130
2 19 120
2 20 41
2 21 91
2 22 147
2 23 106
2 24 107
2 25 150
2 26 192
2 27 27
2 28 97
2 29 38
2 30 161
2 31 124
2 32 57
2 33 86
2 34 143
2 35 109
2 36 196
2 37 131
2 38 110
2 39 165
2 40 145
2 41 125
2 42 84
2 43 158
2 44 108
2 45 43
2 46 138
2 47 153
2 48 190
2 49 100
2 50 162
2 51 143
2 52 76
2 53 37
2 54 177
2 55 197
2 56 65
2 57 122
2 58 155
2 59 67
2 60 185
2 61 116
2 62 171
2 63 37
2 64 49
2 65 107
2 66 151
2 67 50
2 68 121
2 69 55
2 70 80
3 4 198
3 5 75
3 6 208
3 7 133
3 8 63
3 9 122
3 10 141
3 11 81
3 12 192
3 13 163
3 14 63
3 15 98
3 16 50
3 17 154
3 18 46
3 19 102
3 20 23
3 21 89
3 22 80
3 23 111
3 24 82
3 25 118
3 26 66
3 27 107
3 28 22
3 29 121
3 30 120
3 31 94
3 32 166
3 33 146
3 34 86
3 35 177
3 36 123
3 37 165
3 38 144
3 39 60
3 40 65
3 41 42
3 42 2
3 43 53
3 44 203
3 45 74
3 46 112
3 47 31
3 48 182
3 49 13
3 50 193
3 51 169
3 52 148
3 53 145
3 54 188
3 55 187
3 56 111
3 57 186
3 58 104
3 59 152
3 60 125
3 61 155
3 62 44
3 63 55
3 64 82
3 65 6
3 66 24
3 67 60
3 68 104
3 69 107
3 70 34
4 5 201
4 6 98
4 7 166
4 8 117
4 9 203
4 10 85
4 11 111
4 12 47
4 13 6
4 14 16
4 15 193
4 16 177
4 17 65
4 18 182
4 19 104
4 20 5
4 21 94
4 22 182
4 23 114
4 24 139
4 25 45
4 26 184
4 27 176
4 28 209
4 29 42
4 30 196
4 31 155
4 32 13
4 33 118
4 34 100
4 35 72
4 36 161
4 37 151
4 38 205
4 39 28
4 40 99
4 41 58
4 42 183
4 43 205
4 44 68
4 45 206
4 46 95
4 47 115
4 48 9
4 49 131
4 50 73
4 51 123
4 52 19
4 53 37
4 54 60
4 55 207
4 56 144
4 57 36
4 58 137
4 59 39
4 60 151
4 61 17
4 62 61
4 63 100
4 64 40
4 65 90
4 66 31
4 67 117
4 68 153
4 69 99
4 70 34
5 6 13
5 7 45
5 8 155
5 9 152
5 10 161
5 11 112
5 12 120
5 13 15
5 14 91
5 15 16
5 16 159
5 17 153
5 18 49
5 19 78
5 20 172
5 21 197
5 22 127
5 23 67
5 24 10
5 25 77
5 26 52
5 27 139
5 28 21
5 29 109
5 30 178
5 31 68
5 32 190
5 33 141
5 34 208
5 35 120
5 36 44
5 37 155
5 38 13
5 39 193
5 40 96
5 41 181
5 42 48
5 43 4
5 44 21
5 45 93
5 46 154
5 47 111
5 48 33
5 49 178
5 50 209
5 51 134
5 52 16
5 53 184
5 54 58
5 55 43
5 56 167
5 57 186
5 58 56
5 59 144
5 60 63
5 61 44
5 62 178
5 63 168
5 64 194
5 65 146
5 66 65
5 67 75
5 68 114
5 69 49
5 70 203
6 7 101
6 8 139
6 9 182
6 10 56
6 11 182
6 12 143
6 13 33
6 14 120
6 15 178
6 16 203
6 17 163
6 18 75
6 19 144
6 20 19
6 21 125
6 22 113
6 23 2
6 24 79
6 25 115
6 26 20
6 27 45
6 28 99
6 29 117
6 30 5
6 31 7
6 32 174
6 33 79
6 34 169
6 35 12
6 36 203
6 37 188
6 38 138
6 39 183
6 40 92
6 41 3
6 42 121
6 43 143
6 44 21
6 45 25
6 46 183
6 47 60
6 48 184
6 49 102
6 50 122
6 51 146
6 52 194
6 53 184
6 54 32
6 55 67
6 56 99
6 57 201
6 58 40
6 59 85
6 60 63
6 61 52
6 62 27
6 63 148
6 64 134
6 65 191
6 66 29
6 67 117
6 68 115
6 69 65
6 70 95
7 8 59
7 9 86
7 10 177
7 11 166
7 12 179
7 13 80
7 14 165
7 15 67
7 16 22
7 17 59
7 18 8
7 19 117
7 20 85
7 21 206
7 22 10
7 23 156
7 24 125
7 25 71
7 26 78
7 27 102
7 28 204
7 29 131
7 30 22
7 31 23
7 32 207
7 33 129
7 34 199
7 35 181
7 36 90
7 37 167
7 38 161
7 39 62
7 40 31
7 41 101
7 42 82
7 43 172
7 44 88
7 45 86
7 46 24
7 47 19
7 48 55
7 49 74
7 50 179
7 51 160
7 52 67
7 53 124
7 54 10
7 55 9
7 56 52
7 57 114
7 58 126
7 59 130
7 60 23
7 61 51
7 62 163
7 63 56
7 64 72
7 65 93
7 66 118
7 67 46
7 68 4
7 69 185
7 70 128
8 9 181
8 10 70
8 11 130
8 12 112
8 13 98
8 14 85
8 15 7
8 16 142
8 17 87
8 18 181
8 19 75
8 20 38
8 21 149
8 22 137
8 23 92
8 24 76
8 25 182
8 26 200
8 27 111
8 28 180
8 29 49
8 30 92
8 31 174
8 32 99
8 33 102
8 34 4
8 35 196
8 36 75
8 37 89
8 38 150
8 39 19
8 40 20
8 41 111
8 42 119
8 43 154
8 44 173
8 45 98
8 46 116
8 47 47
8 48 35
8 49 128
8 50 139
8 51 124
8 52 94
8 53 60
8 54 175
8 55 85
8 56 107
8 57 155
8 58 206
8 59 63
8 60 126
8 61 27
8 62 174
8 63 25
8 64 156
8 65 76
8 66 208
8 67 193
8 68 34
8 69 206
8 70 198
9 10 101
9 11 70
9 12 5
9 13 208
9 14 195
9 15 134
9 16 40
9 17 64
9 18 106
9 19 20
9 20 160
9 21 74
9 22 22
9 23 49
9 24 147
9 25 91
9 26 174
9 27 98
9 28 128
9 29 111
9 30 66
9 31 75
9 32 1
9 33 112
9 34 208
9 35 37
9 36 138
9 37 185
9 38 16
9 39 132
9 40 139
9 41 109
9 42 29
9 43 90
9 44 163
9 45 50
9 46 114
9 47 157
9 48 41
9 49 138
9 50 147
9 51 153
9 52 202
9 53 157
9 54 98
9 55 25
9 56 74
9 57 36
9 58 11
9 59 18
9 60 10
9 61 169
9 62 74
9 63 189
9 64 65
9 65 196
9 66 37
9 67 169
9 68 121
9 69 202
9 70 115
10 11 44
10 12 25
10 13 88
10 14 40
10 15 79
10 16 176
10 17 198
10 18 176
10 19 83
10 20 93
10 21 197
10 22 144
10 23 163
10 24 65
10 25 0
10 26 51
10 27 184
10 28 36
10 29 149
10 30 70
10 31 69
10 32 0
10 33 139
10 34 112
10 35 137
10 36 70
10 37 44
10 38 25
10 39 25
10 40 32
10 41 105
10 42 74
10 43 32
10 44 122
10 45 92
10 46 155
10 47 202
10 48 17
10 49 195
10 50 53
10 51 168
10 52 52
10 53 149
10 54 0
10 55 139
10 56 176
10 57 110
10 58 199
10 59 92
10 60 182
10 61 35
10 62 92
10 63 20
10 64 74
10 65 3
10 66 149
10 67 168
10 68 136
10 69 53
10 70 66
11 12 179
11 13 189
11 14 183
11 15 76
11 16 180
11 17 130
11 18 12
11 19 200
11 20 133
11 21 31
11 22 186
11 23 88
11 24 162
11 25 200
11 26 47
11 27 60
11 28 48
11 29 181
11 30 172
11 31 19
11 32 51
11 33 88
11 34 84
11 35 5
11 36 156
11 37 158
11 38 135
11 39 119
11 40 41
11 41 147
11 42 58
11 43 182
11 44 143
11 45 164
11 46 181
11 47 95
11 48 69
11 49 153
11 50 93
11 51 1
11 52 8
11 53 154
11 54 54
11 55 77
11 56 13
11 57 69
11 58 31
11 59 75
11 60 39
11 61 142
11 62 94
11 63 139
11 64 27
11 65 163
11 66 189
11 67 21
11 68 91
11 69 60
11 70 134
12 13 117
12 14 10
12 15 34
12 16 126
12 17 152
12 18 98
12 19 115
12 20 53
12 21 205
12 22 142
12 23 37
12 24 160
12 25 148
12 26 102
12 27 90
12 28 114
12 29 54
12 30 116
12 31 69
12 32 57
12 33 118
12 34 187
12 35 109
12 36 153
12 37 175
12 38 61
12 39 63
12 40 6
12 41 18
12 42 109
12 43 119
12 44 153
12 45 87
12 46 187
12 47 64
12 48 208
12 49 60
12 50 133
12 51 167
12 52 154
12 53 170
12 54 59
12 55 192
12 56 209
12 57 189
12 58 66
12 59 130
12 60 76
12 61 46
12 62 74
12 63 94
12 64 148
12 65 123
12 66 89
12 67 37
12 68 66
12 69 201
12 70 102
13 14 118
13 15 3
13 16 108
13 17 54
13 18 4
13 19 81
13 20 185
13 21 195
13 22 161
13 23 148
13 24 40
13 25 108
13 26 191
13 27 65
13 28 190
13 29 31
13 30 73
13 31 168
13 32 197
13 33 60
13 34 172
13 35 105
13 36 91
13 37 51
13 38 46
13 39 90
13 40 92
13 41 11
13 42 53
13 43 202
13 44 129
13 45 70
13 46 26
13 47 150
13 48 0
13 49 89
13 50 21
13 51 35
13 52 41
13 53 15
13 54 46
13 55 138
13 56 129
13 57 95
13 58 133
13 59 91
13 60 106
13 61 197
13 62 2
13 63 79
13 64 58
13 65 118
13 66 22
13 67 1
13 68 159
13 69 145
13 70 89
14 15 126
14 16 111
14 17 100
14 18 24
14 19 51
14 20 128
14 21 165
14 22 37
14 23 26
14 24 189
14 25 97
14 26 75
14 27 61
14 28 100
14 29 49
14 30 32
14 31 164
14 32 116
14 33 140
14 34 60
14 35 63
14 36 199
14 37 12
14 38 195
14 39 81
14 40 9
14 41 47
14 42 145
14 43 68
14 44 123
14 45 14
14 46 201
14 47 11
14 48 106
14 49 199
14 50 195
14 51 87
14 52 155
14 53 83
14 54 105
14 55 28
14 56 64
14 57 107
14 58 165
14 59 129
14 60 164
14 61 29
14 62 192
14 63 52
14 64 27
14 65 80
14 66 183
14 67 184
14 68 179
14 69 98
14 70 177
15 16 94
15 17 166
15 18 109
15 19 19
15 20 74
15 21 81
15 22 22
15 23 146
15 24 118
15 25 0
15 26 70
15 27 138
15 28 130
15 29 156
15 30 133
15 31 147
15 32 203
15 33 184
15 34 62
15 35 142
15 36 112
15 37 46
15 38 71
15 39 186
15 40 179
15 41 147
15 42 101
15 43 205
15 44 42
15 45 111
15 46 188
15 47 15
15 48 39
15 49 193
15 50 200
15 51 137
15 52 47
15 53 28
15 54 120
15 55 1
15 56 136
15 57 111
15 58 164
15 59 12
15 60 201
15 61 70
15 62 122
15 63 133
15 64 96
15 65 179
15 66 176
15 67 40
15 68 148
15 69 23
15 70 123
16 17 8
16 18 19
16 19 45
16 20 156
16 21 133
16 22 178
16 23 114
16 24 75
16 25 85
16 26 4
16 27 13
16 28 84
16 29 56
16 30 163
16 31 160
16 32 57
16 33 162
16 34 199
16 35 42
16 36 144
16 37 178
16 38 148
16 39 197
16 40 63
16 41 124
16 42 122
16 43 44
16 44 113
16 45 78
16 46 51
16 47 81
16 48 145
16 49 111
16 50 18
16 51 206
16 52 158
16 53 56
16 54 19
16 55 125
16 56 27
16 57 197
16 58 122
16 59 75
16 60 193
16 61 65
16 62 65
16 63 22
16 64 120
16 65 124
16 66 87
16 67 2
16 68 54
16 69 74
16 70 209
17 18 108
17 19 5
17 20 172
17 21 138
17 22 109
17 23 125
17 24 185
17 25 47
17 26 15
17 27 43
17 28 149
17 29 91
17 30 135
17 31 162
17 32 96
17 33 157
17 34 186
17 35 18
17 36 150
17 37 48
17 38 72
17 39 52
17 40 207
17 41 207
17 42 70
17 43 89
17 44 72
17 45 176
17 46 31
17 47 58
17 48 96
17 49 135
17 50 180
17 51 182
17 52 80
17 53 140
17 54 205
17 55 176
17 56 196
17 57 23
17 58 9
17 59 17
17 60 106
17 61 144
17 62 154
17 63 124
17 64 69
17 65 175
17 66 134
17 67 105
17 68 57
17 69 101
17 70 139
18 19 39
18 20 53
18 21 27
18 22 201
18 23 144
18 24 140
18 25 150
18 26 184
18 27 188
18 28 132
18 29 97
18 30 86
18 31 52
18 32 201
18 33 26
18 34 23
18 35 27
18 36 86
18 37 124
18 38 14
18 39 17
18 40 192
18 41 104
18 42 164
18 43 170
18 44 154
18 45 99
18 46 107
18 47 58
18 48 59
18 49 9
18 50 58
18 51 114
18 52 181
18 53 131
18 54 46
18 55 139
18 56 71
18 57 166
18 58 102
18 59 10
18 60 26
18 61 100
18 62 65
18 63 77
18 64 148
18 65 73
18 66 130
18 67 153
18 68 57
18 69 54
18 70 171
19 20 201
19 21 97
19 22 116
19 23 179
19 24 35
19 25 199
19 26 164
19 27 130
19 28 44
19 29 172
19 30 10
19 31 144
19 32 208
19 33 136
19 34 41
19 35 25
19 36 55
19 37 28
19 38 163
19 39 114
19 40 65
19 41 48
19 42 197
19 43 185
19 44 162
19 45 161
19 46 161
19 47 199
19 48 47
19 49 80
19 50 56
19 51 73
19 52 45
19 53 62
19 54 135
19 55 98
19 56 34
19 57 127
19 58 131
19 59 177
19 60 149
19 61 148
19 62 191
19 63 18
19 64 47
19 65 127
19 66 43
19 67 108
19 68 5
19 69 129
19 70 95
20 21 102
20 22 78
20 23 141
20 24 112
20 25 20
20 26 0
20 27 55
20 28 51
20 29 199
20 30 71
20 31 44
20 32 20
20 33 111
20 34 182
20 35 143
20 36 60
20 37 118
20 38 124
20 39 161
20 40 46
20 41 160
20 42 70
20 43 68
20 44 166
20 45 131
20 46 181
20 47 34
20 48 51
20 49 76
20 50 133
20 51 110
20 52 78
20 53 147
20 54 78
20 55 187
20 56 169
20 57 43
20 58 195
20 59 120
20 60 67
20 61 14
20 62 46
20 63 161
20 64 23
20 65 43
20 66 65
20 67 143
20 68 69
20 69 33
20 70 79
21 22 165
21 23 54
21 24 40
21 25 119
21 26 90
21 27 11
21 28 37
21 29 143
21 30 39
21 31 197
21 32 166
21 33 16
21 34 84
21 35 153
21 36 77
21 37 187
21 38 3
21 39 183
21 40 34
21 41 14
21 42 88
21 43 141
21 44 67
21 45 88
21 46 11
21 47 93
21 48 80
21 49 84
21 50 194
21 51 122
21 52 9
21 53 99
21 54 1
21 55 75
21 56 186
21 57 103
21 58 177
21 59 79
21 60 180
21 61 129
21 62 62
21 63 23
21 64 25
21 65 206
21 66 82
21 67 146
21 68 155
21 69 205
21 70 207
22 23 187
22 24 70
22 25 98
22 26 167
22 27 74
22 28 209
22 29 118
22 30 169
22 31 201
22 32 68
22 33 54
22 34 171
22 35 105
22 36 102
22 37 157
22 38 196
22 39 170
22 40 82
22 41 52
22 42 6
22 43 21
22 44 177
22 45 137
22 46 166
22 47 93
22 48 89
22 49 154
22 50 78
22 51 174
22 52 77
22 53 91
22 54 97
22 55 204
22 56 169
22 57 28
22 58 168
22 59 130
22 60 68
22 61 197
22 62 202
22 63 209
22 64 47
22 65 43
22 66 56
22 67 154
22 68 110
22 69 170
22 70 127
23 24 66
23 25 203
23 26 181
23 27 92
23 28 5
23 29 105
23 30 41
23 31 100
23 32 126
23 33 27
23 34 32
23 35 207
23 36 4
23 37 108
23 38 173
23 39 159
23 40 49
23 41 30
23 42 123
23 43 202
23 44 66
23 45 53
23 46 166
23 47 71
23 48 208
23 49 184
23 50 2
23 51 27
23 52 165
23 53 154
23 54 162
23 55 125
23 56 27
23 57 64
23 58 201
23 59 133
23 60 189
23 61 19
23 62 105
23 63 203
23 64 56
23 65 11
23 66 91
23 67 92
23 68 158
23 69 96
23 70 130
24 25 205
24 26 155
24 27 104
24 28 44
24 29 113
24 30 13
24 31 96
24 32 12
24 33 84
24 34 124
24 35 97
24 36 136
24 37 185
24 38 199
24 39 32
24 40 130
24 41 133
24 42 36
24 43 110
24 44 50
24 45 53
24 46 27
24 47 85
24 48 138
24 49 169
24 50 68
24 51 127
24 52 120
24 53 102
24 54 119
24 55 152
24 56 89
24 57 154
24 58 48
24 59 116
24 60 128
24 61 97
24 62 26
24 63 29
24 64 85
24 65 163
24 66 88
24 67 200
24 68 90
24 69 5
24 70 1
25 26 9
25 27 127
25 28 110
25 29 84
25 30 90
25 31 115
25 32 130
25 33 45
25 34 63
25 35 40
25 36 164
25 37 120
25 38 63
25 39 2
25 40 50
25 41 5
25 42 149
25 43 127
25 44 193
25 45 147
25 46 164
25 47 203
25 48 43
25 49 158
25 50 24
25 51 199
25 52 19
25 53 35
25 54 206
25 55 114
25 56 64
25 57 113
25 58 47
25 59 21
25 60 171
25 61 60
25 62 39
25 63 114
25 64 121
25 65 186
25 66 87
25 67 54
25 68 94
25 69 5
25 70 59
26 27 160
26 28 31
26 29 135
26 30 150
26 31 117
26 32 104
26 33 181
26 34 17
26 35 169
26 36 12
26 37 0
26 38 121
26 39 200
26 40 84
26 41 160
26 42 69
26 43 128
26 44 22
26 45 178
26 46 64
26 47 133
26 48 183
26 49 84
26 50 114
26 51 108
26 52 149
26 53 53
26 54 34
26 55 97
26 56 87
26 57 0
26 58 95
26 59 91
26 60 0
26 61 7
26 62 70
26 63 109
26 64 67
26 65 86
26 66 178
26 67 44
26 68 24
26 69 150
26 70 4
27 28 151
27 29 3
27 30 109
27 31 19
27 32 15
27 33 42
27 34 110
27 35 25
27 36 164
27 37 3
27 38 203
27 39 205
27 40 190
27 41 95
27 42 10
27 43 4
27 44 118
27 45 109
27 46 98
27 47 178
27 48 52
27 49 162
27 50 111
27 51 68
27 52 4
27 53 42
27 54 117
27 55 15
27 56 166
27 57 195
27 58 16
27 59 16
27 60 177
27 61 156
27 62 166
27 63 22
27 64 131
27 65 69
27 66 47
27 67 51
27 68 184
27 69 148
27 70 209
28 29 39
28 30 136
28 31 116
28 32 115
28 33 141
28 34 27
28 35 165
28 36 142
28 37 107
28 38 99
28 39 61
28 40 149
28 41 156
28 42 116
28 43 189
28 44 205
28 45 115
28 46 32
28 47 116
28 48 6
28 49 197
28 50 206
28 51 144
28 52 56
28 53 195
28 54 12
28 55 22
28 56 8
28 57 173
28 58 19
28 59 114
28 60 93
28 61 186
28 62 74
28 63 21
28 64 2
28 65 203
28 66 32
28 67 50
28 68 29
28 69 186
28 70 63
29 30 188
29 31 137
29 32 155
29 33 45
29 34 139
29 35 133
29 36 141
29 37 162
29 38 132
29 39 78
29 40 122
29 41 21
29 42 47
29 43 57
29 44 15
29 45 10
29 46 132
29 47 43
29 48 99
29 49 124
29 50 41
29 51 62
29 52 4
29 53 160
29 54 159
29 55 113
29 56 99
29 57 74
29 58 165
29 59 179
29 60 152
29 61 14
29 62 145
29 63 195
29 64 170
29 65 201
29 66 171
29 67 164
29 68 139
29 69 31
29 70 207
30 31 67
30 32 170
30 33 119
30 34 170
30 35 34
30 36 126
30 37 101
30 38 188
30 39 205
30 40 43
30 41 181
30 42 80
30 43 142
30 44 25
30 45 205
30 46 205
30 47 124
30 48 139
30 49 116
30 50 125
30 51 63
30 52 192
30 53 98
30 54 118
30 55 172
30 56 13
30 57 49
30 58 64
30 59 117
30 60 148
30 61 161
30 62 147
30 63 41
30 64 112
30 65 149
30 66 149
30 67 162
30 68 5
30 69 104
30 70 53
31 32 27
31 33 157
31 34 80
31 35 161
31 36 203
31 37 14
31 38 204
31 39 99
31 40 127
31 41 117
31 42 146
31 43 13
31 44 105
31 45 134
31 46 116
31 47 177
31 48 174
31 49 139
31 50 38
31 51 102
31 52 23
31 53 75
31 54 137
31 55 120
31 56 184
31 57 205
31 58 149
31 59 144
31 60 141
31 61 123
31 62 34
31 63 207
31 64 18
31 65 78
31 66 170
31 67 112
31 68 20
31 69 34
31 70 100
32 33 181
32 34 0
32 35 144
32 36 77
32 37 19
32 38 185
32 39 208
32 40 160
32 41 162
32 42 74
32 43 201
32 44 113
32 45 68
32 46 190
32 47 101
32 48 7
32 49 145
32 50 133
32 51 47
32 52 159
32 53 123
32 54 80
32 55 202
32 56 31
32 57 134
32 58 165
32 59 191
32 60 12
32 61 47
32 62 83
32 63 27
32 64 86
32 65 122
32 66 114
32 67 69
32 68 161
32 69 166
32 70 203
33 34 118
33 35 155
33 36 83
33 37 119
33 38 143
33 39 105
33 40 74
33 41 143
33 42 168
33 43 185
33 44 17
33 45 117
33 46 171
33 47 44
33 48 74
33 49 84
33 50 56
33 51 77
33 52 22
33 53 26
33 54 126
33 55 4
33 56 135
33 57 90
33 58 84
33 59 189
33 60 15
33 61 87
33 62 103
33 63 36
33 64 108
33 65 27
33 66 169
33 67 17
33 68 88
33 69 35
33 70 27
34 35 78
34 36 33
34 37 160
34 38 202
34 39 67
34 40 9
34 41 73
34 42 196
34 43 166
34 44 59
34 45 137
34 46 161
34 47 193
34 48 169
34 49 83
34 50 140
34 51 64
34 52 125
34 53 27
34 54 11
34 55 80
34 56 90
34 57 24
34 58 67
34 59 30
34 60 101
34 61 20
34 62 27
34 63 189
34 64 62
34 65 39
34 66 63
34 67 136
34 68 33
34 69 29
34 70 100
35 36 3
35 37 15
35 38 130
35 39 203
35 40 15
35 41 110
35 42 176
35 43 161
35 44 137
35 45 184
35 46 147
35 47 83
35 48 100
35 49 187
35 50 110
35 51 0
35 52 97
35 53 140
35 54 196
35 55 153
35 56 48
35 57 128
35 58 44
35 59 17
35 60 177
35 61 9
35 62 152
35 63 147
35 64 52
35 65 54
35 66 108
35 67 159
35 68 147
35 69 93
35 70 207
36 37 92
36 38 124
36 39 149
36 40 32
36 41 102
36 42 171
36 43 176
36 44 108
36 45 97
36 46 167
36 47 94
36 48 166
36 49 10
36 50 2
36 51 189
36 52 20
36 53 128
36 54 203
36 55 46
36 56 159
36 57 122
36 58 67
36 59 77
36 60 20
36 61 66
36 62 150
36 63 40
36 64 172
36 65 19
36 66 65
36 67 171
36 68 67
36 69 117
36 70 177
37 38 116
37 39 162
37 40 80
37 41 132
37 42 65
37 43 202
37 44 68
37 45 141
37 46 127
37 47 63
37 48 122
37 49 147
37 50 155
37 51 86
37 52 153
37 53 138
37 54 10
37 55 89
37 56 22
37 57 139
37 58 205
37 59 20
37 60 150
37 61 179
37 62 146
37 63 81
37 64 34
37 65 8
37 66 119
37 67 34
37 68 23
37 69 164
37 70 183
38 39 57
38 40 114
38 41 199
38 42 53
38 43 29
38 44 85
38 45 104
38 46 172
38 47 87
38 48 155
38 49 44
38 50 88
38 51 14
38 52 28
38 53 25
38 54 11
38 55 96
38 56 14
38 57 3
38 58 150
38 59 135
38 60 129
38 61 80
38 62 105
38 63 10
38 64 118
38 65 33
38 66 164
38 67 95
38 68 94
38 69 193
38 70 2
39 40 63
39 41 183
39 42 187
39 43 40
39 44 25
39 45 97
39 46 178
39 47 68
39 48 175
39 49 55
39 50 191
39 51 182
39 52 72
39 53 15
39 54 208
39 55 49
39 56 16
39 57 165
39 58 73
39 59 90
39 60 89
39 61 37
39 62 151
39 63 95
39 64 34
39 65 192
39 66 90
39 67 42
39 68 67
39 69 106
39 70 13
40 41 106
40 42 180
40 43 48
40 44 187
40 45 150
40 46 102
40 47 91
40 48 151
40 49 140
40 50 178
40 51 115
40 52 120
40 53 95
40 54 128
40 55 16
40 56 107
40 57 150
40 58 54
40 59 135
40 60 165
40 61 21
40 62 61
40 63 110
40 64 78
40 65 159
40 66 3
40 67 173
40 68 44
40 69 147
40 70 105
41 42 137
41 43 106
41 44 121
41 45 190
41 46 8
41 47 93
41 48 126
41 49 142
41 50 168
41 51 47
41 52 192
41 53 62
41 54 148
41 55 152
41 56 155
41 57 78
41 58 41
41 59 122
41 60 100
41 61 147
41 62 147
41 63 205
41 64 103
41 65 168
41 66 140
41 67 158
41 68 104
41 69 119
41 70 11
42 43 181
42 44 47
42 45 180
42 46 5
42 47 78
42 48 88
42 49 38
42 50 28
42 51 54
42 52 166
42 53 65
42 54 121
42 55 50
42 56 64
42 57 124
42 58 132
42 59 161
42 60 170
42 61 4
42 62 75
42 63 43
42 64 191
42 65 190
42 66 33
42 67 107
42 68 194
42 69 158
42 70 179
43 44 25
43 45 137
43 46 131
43 47 92
43 48 142
43 49 94
43 50 73
43 51 77
43 52 114
43 53 125
43 54 197
43 55 189
43 56 66
43 57 70
43 58 35
43 59 38
43 60 57
43 61 85
43 62 124
43 63 205
43 64 103
43 65 105
43 66 87
43 67 58
43 68 164
43 69 100
43 70 29
44 45 133
44 46 41
44 47 6
44 48 207
44 49 95
44 50 61
44 51 110
44 52 150
44 53 6
44 54 193
44 55 154
44 56 159
44 57 14
44 58 96
44 59 106
44 60 47
44 61 17
44 62 189
44 63 154
44 64 176
44 65 39
44 66 94
44 67 65
44 68 55
44 69 48
44 70 75
45 46 122
45 47 11
45 48 64
45 49 147
45 50 161
45 51 22
45 52 14
45 53 64
45 54 146
45 55 102
45 56 47
45 57 27
45 58 33
45 59 37
45 60 133
45 61 61
45 62 42
45 63 104
45 64 190
45 65 1
45 66 153
45 67 110
45 68 194
45 69 62
45 70 142
46 47 55
46 48 174
46 49 189
46 50 53
46 51 23
46 52 156
46 53 11
46 54 177
46 55 73
46 56 187
46 57 21
46 58 159
46 59 130
46 60 185
46 61 40
46 62 137
46 63 43
46 64 126
46 65 151
46 66 178
46 67 125
46 68 196
46 69 150
46 70 53
47 48 69
47 49 21
47 50 33
47 51 191
47 52 23
47 53 21
47 54 104
47 55 41
47 56 68
47 57 73
47 58 204
47 59 195
47 60 131
47 61 33
47 62 91
47 63 36
47 64 125
47 65 158
47 66 39
47 67 126
47 68 72
47 69 108
47 70 128
48 49 94
48 50 98
48 51 49
48 52 109
48 53 54
48 54 92
48 55 200
48 56 32
48 57 1
48 58 205
48 59 181
48 60 168
48 61 162
48 62 80
48 63 117
48 64 57
48 65 29
48 66 169
48 67 150
48 68 175
48 69 121
48 70 123
49 50 138
49 51 202
49 52 88
49 53 176
49 54 87
49 55 179
49 56 155
49 57 78
49 58 177
49 59 89
49 60 119
49 61 136
49 62 1
49 63 59
49 64 177
49 65 132
49 66 22
49 67 105
49 68 15
49 69 3
49 70 89
50 51 171
50 52 140
50 53 85
50 54 129
50 55 77
50 56 23
50 57 194
50 58 115
50 59 55
50 60 121
50 61 193
50 62 172
50 63 78
50 64 158
50 65 137
50 66 16
50 67 42
50 68 13
50 69 190
50 70 60
51 52 57
51 53 95
51 54 116
51 55 157
51 56 6
51 57 185
51 58 132
51 59 135
51 60 186
51 61 139
51 62 59
51 63 201
51 64 89
51 65 64
51 66 107
51 67 1
51 68 65
51 69 175
51 70 124
52 53 191
52 54 51
52 55 192
52 56 7
52 57 37
52 58 38
52 59 109
52 60 126
52 61 13
52 62 47
52 63 116
52 64 21
52 65 1
52 66 51
52 67 48
52 68 3
52 69 144
52 70 63
53 54 165
53 55 43
53 56 206
53 57 0
53 58 5
53 59 16
53 60 59
53 61 150
53 62 16
53 63 58
53 64 52
53 65 200
53 66 94
53 67 105
53 68 49
53 69 131
53 70 3
54 55 29
54 56 163
54 57 98
54 58 69
54 59 45
54 60 121
54 61 81
54 62 7
54 63 22
54 64 134
54 65 58
54 66 130
54 67 51
54 68 88
54 69 152
54 70 176
55 56 54
55 57 143
55 58 94
55 59 186
55 60 148
55 61 25
55 62 144
55 63 135
55 64 6
55 65 134
55 66 35
55 67 58
55 68 135
55 69 109
55 70 45
56 57 142
56 58 21
56 59 124
56 60 145
56 61 188
56 62 129
56 63 143
56 64 87
56 65 76
56 66 45
56 67 205
56 68 181
56 69 142
56 70 99
57 58 24
57 59 162
57 60 78
57 61 47
57 62 30
57 63 77
57 64 135
57 65 107
57 66 131
57 67 102
57 68 189
57 69 175
57 70 19
58 59 48
58 60 63
58 61 206
58 62 63
58 63 129
58 64 51
58 65 42
58 66 101
58 67 49
58 68 141
58 69 14
58 70 25
59 60 85
59 61 4
59 62 7
59 63 207
59 64 155
59 65 126
59 66 70
59 67 74
59 68 18
59 69 9
59 70 25
60 61 207
60 62 60
60 63 2
60 64 209
60 65 64
60 66 50
60 67 120
60 68 158
60 69 184
60 70 12
61 62 178
61 63 16
61 64 81
61 65 77
61 66 135
61 67 186
61 68 189
61 69 165
61 70 7
62 63 59
62 64 147
62 65 74
62 66 102
62 67 62
62 68 205
62 69 36
62 70 71
63 64 83
63 65 174
63 66 74
63 67 135
63 68 162
63 69 76
63 70 90
64 65 117
64 66 16
64 67 89
64 68 95
64 69 80
64 70 78
65 66 121
65 67 31
65 68 11
65 69 25
65 70 107
66 67 16
66 68 16
66 69 125
66 70 35
67 68 1
67 69 150
67 70 158
68 69 103
68 70 90
69 70 34
